(benchmark gametime
:status unknown
:logic QF_AUFBV
:extrafuns ((gtINDEX61  BitVec[32]))
:extrafuns ((gtFIELD__bitsForTID0__gtAGG____anonstruct_D_Work_4  Array[32:32]))
:extrafuns ((gtINDEX62  BitVec[32]))
:extrafuns ((gtAGG__rtDWork  BitVec[32]))
:extrafuns ((gtINDEX59  BitVec[32]))
:extrafuns ((gtINDEX60  BitVec[32]))
:extrafuns ((gtINDEX57  BitVec[32]))
:extrafuns ((gtINDEX58  BitVec[32]))
:extrafuns ((gtINDEX55  BitVec[32]))
:extrafuns ((gtINDEX56  BitVec[32]))
:extrafuns ((gtINDEX54  BitVec[32]))
:extrafuns ((gtINDEX53  BitVec[32]))
:extrafuns ((gtINDEX52  BitVec[32]))
:extrafuns ((gtINDEX51  BitVec[32]))
:extrafuns ((gtINDEX49  BitVec[32]))
:extrafuns ((gtINDEX50  BitVec[32]))
:extrafuns ((gtINDEX47  BitVec[32]))
:extrafuns ((gtINDEX48  BitVec[32]))
:extrafuns ((gtINDEX45  BitVec[32]))
:extrafuns ((gtINDEX46  BitVec[32]))
:extrafuns ((gtINDEX43  BitVec[32]))
:extrafuns ((gtINDEX44  BitVec[32]))
:extrafuns ((gtINDEX41  BitVec[32]))
:extrafuns ((gtINDEX42  BitVec[32]))
:extrafuns ((gtINDEX39  BitVec[32]))
:extrafuns ((gtINDEX40  BitVec[32]))
:extrafuns ((gtINDEX38  BitVec[32]))
:extrafuns ((gtINDEX36  BitVec[32]))
:extrafuns ((gtINDEX37  BitVec[32]))
:extrafuns ((gtINDEX34  BitVec[32]))
:extrafuns ((gtINDEX35  BitVec[32]))
:extrafuns ((gtINDEX32  BitVec[32]))
:extrafuns ((gtINDEX33  BitVec[32]))
:extrafuns ((gtINDEX30  BitVec[32]))
:extrafuns ((gtINDEX31  BitVec[32]))
:extrafuns ((gtINDEX28  BitVec[32]))
:extrafuns ((gtINDEX29  BitVec[32]))
:extrafuns ((gtINDEX27  BitVec[32]))
:extrafuns ((gtINDEX26  BitVec[32]))
:extrafuns ((gtINDEX25  BitVec[32]))
:extrafuns ((gtINDEX24  BitVec[32]))
:extrafuns ((gtINDEX23  BitVec[32]))
:extrafuns ((gtINDEX21  BitVec[32]))
:extrafuns ((gtINDEX22  BitVec[32]))
:extrafuns ((gtINDEX19  BitVec[32]))
:extrafuns ((gtINDEX20  BitVec[32]))
:extrafuns ((gtINDEX17  BitVec[32]))
:extrafuns ((gtINDEX18  BitVec[32]))
:extrafuns ((gtINDEX15  BitVec[32]))
:extrafuns ((gtINDEX16  BitVec[32]))
:extrafuns ((gtINDEX13  BitVec[32]))
:extrafuns ((gtINDEX14  BitVec[32]))
:extrafuns ((gtINDEX11  BitVec[32]))
:extrafuns ((gtINDEX12  BitVec[32]))
:extrafuns ((gtINDEX10  BitVec[32]))
:extrafuns ((gtINDEX8  BitVec[32]))
:extrafuns ((gtINDEX9  BitVec[32]))
:extrafuns ((gtINDEX6  BitVec[32]))
:extrafuns ((gtINDEX7  BitVec[32]))
:extrafuns ((gtINDEX4  BitVec[32]))
:extrafuns ((gtINDEX5  BitVec[32]))
:extrafuns ((gtINDEX2  BitVec[32]))
:extrafuns ((gtINDEX3  BitVec[32]))
:extrafuns ((gtINDEX0  BitVec[32]))
:extrafuns ((gtINDEX1  BitVec[32]))
:extrafuns ((gtFIELD__is_Eng__gtAGG____anonstruct_bitsForTID0_5_1_  Array[32:1]))
:extrafuns ((gtFIELD__is_Eng__gtAGG____anonstruct_bitsForTID0_5_2_  Array[32:1]))
:extrafuns ((sf_previousEvent_1_  BitVec[32]))
:extrafuns ((sfEvent__2_  BitVec[32]))
:extrafuns ((gtFIELD__is_Eng__gtAGG____anonstruct_bitsForTID0_5  Array[32:1]))
:extrafuns ((gtFIELD__sent__gtAGG____anonstruct_D_Work_4_1_  Array[32:32]))
:extrafuns ((gtFIELD__sent__gtAGG____anonstruct_D_Work_4_2_  Array[32:32]))
:extrafuns ((gtFIELD__is_active_Eng__gtAGG____anonstruct_bitsForTID0_5  Array[32:1]))
:extrafuns ((gtFIELD__is_active_PURI__gtAGG____anonstruct_bitsForTID0_5  Array[32:1]))
:extrafuns ((gtFIELD__is_active_PVRP__gtAGG____anonstruct_bitsForTID0_5  Array[32:1]))
:extrafuns ((gtFIELD__is_active_PPVARP__gtAGG____anonstruct_bitsForTID0_5  Array[32:1]))
:extrafuns ((gtFIELD__is_active_PLRI__gtAGG____anonstruct_bitsForTID0_5  Array[32:1]))
:extrafuns ((gtFIELD__is_PAVI__gtAGG____anonstruct_bitsForTID0_5  Array[32:3]))
:extrafuns ((gtFIELD__is_active_PAVI__gtAGG____anonstruct_bitsForTID0_5  Array[32:1]))
:extrafuns ((sfEvent__1_  BitVec[32]))
:extrafuns ((sfEvent_  BitVec[32]))
:extrafuns ((gtFIELD__sent__gtAGG____anonstruct_D_Work_4  Array[32:32]))
:extrapreds ((constraint104 ))
:extrapreds ((constraint103 ))
:extrapreds ((constraint102 ))
:extrapreds ((constraint101 ))
:extrapreds ((constraint100 ))
:extrapreds ((constraint99 ))
:extrapreds ((constraint98 ))
:extrapreds ((constraint97 ))
:extrapreds ((constraint96 ))
:extrapreds ((constraint95 ))
:extrapreds ((constraint94 ))
:extrapreds ((constraint93 ))
:extrapreds ((constraint92 ))
:extrapreds ((constraint91 ))
:extrapreds ((constraint90 ))
:extrapreds ((constraint89 ))
:extrapreds ((constraint88 ))
:extrapreds ((constraint87 ))
:extrapreds ((constraint86 ))
:extrapreds ((constraint85 ))
:extrapreds ((constraint84 ))
:extrapreds ((constraint83 ))
:extrapreds ((constraint82 ))
:extrapreds ((constraint81 ))
:extrapreds ((constraint80 ))
:extrapreds ((constraint79 ))
:extrapreds ((constraint78 ))
:extrapreds ((constraint77 ))
:extrapreds ((constraint76 ))
:extrapreds ((constraint75 ))
:extrapreds ((constraint74 ))
:extrapreds ((constraint73 ))
:extrapreds ((constraint72 ))
:extrapreds ((constraint71 ))
:extrapreds ((constraint70 ))
:extrapreds ((constraint69 ))
:extrapreds ((constraint68 ))
:extrapreds ((constraint67 ))
:extrapreds ((constraint66 ))
:extrapreds ((constraint65 ))
:extrapreds ((constraint64 ))
:extrapreds ((constraint63 ))
:extrapreds ((constraint62 ))
:extrapreds ((constraint61 ))
:extrapreds ((constraint60 ))
:extrapreds ((constraint59 ))
:extrapreds ((constraint58 ))
:extrapreds ((constraint57 ))
:extrapreds ((constraint56 ))
:extrapreds ((constraint55 ))
:extrapreds ((constraint54 ))
:extrapreds ((constraint53 ))
:extrapreds ((constraint52 ))
:extrapreds ((constraint51 ))
:extrapreds ((constraint50 ))
:extrapreds ((constraint49 ))
:extrapreds ((constraint48 ))
:extrapreds ((constraint47 ))
:extrapreds ((constraint46 ))
:extrapreds ((constraint45 ))
:extrapreds ((constraint44 ))
:extrapreds ((constraint43 ))
:extrapreds ((constraint42 ))
:extrapreds ((constraint41 ))
:extrapreds ((constraint40 ))
:extrapreds ((constraint39 ))
:extrapreds ((constraint38 ))
:extrapreds ((constraint37 ))
:extrapreds ((constraint36 ))
:extrapreds ((constraint35 ))
:extrapreds ((constraint34 ))
:extrapreds ((constraint33 ))
:extrapreds ((constraint32 ))
:extrapreds ((constraint31 ))
:extrapreds ((constraint30 ))
:extrapreds ((constraint29 ))
:extrapreds ((constraint28 ))
:extrapreds ((constraint27 ))
:extrapreds ((constraint26 ))
:extrapreds ((constraint25 ))
:extrapreds ((constraint24 ))
:extrapreds ((constraint23 ))
:extrapreds ((constraint22 ))
:extrapreds ((constraint21 ))
:extrapreds ((constraint20 ))
:extrapreds ((constraint19 ))
:extrapreds ((constraint18 ))
:extrapreds ((constraint17 ))
:extrapreds ((constraint16 ))
:extrapreds ((constraint15 ))
:extrapreds ((constraint14 ))
:extrapreds ((constraint13 ))
:extrapreds ((constraint12 ))
:extrapreds ((constraint11 ))
:extrapreds ((constraint10 ))
:extrapreds ((constraint9 ))
:extrapreds ((constraint8 ))
:extrapreds ((constraint7 ))
:extrapreds ((constraint6 ))
:extrapreds ((constraint5 ))
:extrapreds ((constraint4 ))
:extrapreds ((constraint3 ))
:extrapreds ((constraint2 ))
:extrapreds ((constraint1 ))
:extrapreds ((constraint0 ))
:formula
(flet ($x552 (and constraint0 constraint1 constraint2 constraint3 constraint4 constraint5 constraint6 constraint7 constraint8 constraint9 constraint10 constraint11 constraint12 constraint13 constraint14 constraint15 constraint16 constraint17 constraint18 constraint19 constraint20 constraint21 constraint22 constraint23 constraint24 constraint25 constraint26 constraint27 constraint28 constraint29 constraint30 constraint31 constraint32 constraint33 constraint34 constraint35 constraint36 constraint37 constraint38 constraint39 constraint40 constraint41 constraint42 constraint43 constraint44 constraint45 constraint46 constraint47 constraint48 constraint49 constraint50 constraint51 constraint52 constraint53 constraint54 constraint55 constraint56 constraint57 constraint58 constraint59 constraint60 constraint61 constraint62 constraint63 constraint64 constraint65 constraint66 constraint67 constraint68 constraint69 constraint70 constraint71 constraint72 constraint73 constraint74 constraint75 constraint76 constraint77 constraint78 constraint79 constraint80 constraint81 constraint82 constraint83 constraint84 constraint85 constraint86 constraint87 constraint88 constraint89 constraint90 constraint91 constraint92 constraint93 constraint94 constraint95 constraint96 constraint97 constraint98 constraint99 constraint100 constraint101 constraint102 constraint103 constraint104))
(flet ($x340 (= gtINDEX62 (select gtFIELD__bitsForTID0__gtAGG____anonstruct_D_Work_4 gtINDEX61)))
(flet ($x336 (= gtINDEX60 (select gtFIELD__bitsForTID0__gtAGG____anonstruct_D_Work_4 gtINDEX59)))
(flet ($x332 (= gtINDEX58 (select gtFIELD__bitsForTID0__gtAGG____anonstruct_D_Work_4 gtINDEX57)))
(flet ($x328 (= gtINDEX56 (select gtFIELD__bitsForTID0__gtAGG____anonstruct_D_Work_4 gtINDEX55)))
(flet ($x320 (= gtINDEX50 (select gtFIELD__bitsForTID0__gtAGG____anonstruct_D_Work_4 gtINDEX49)))
(flet ($x316 (= gtINDEX48 (select gtFIELD__bitsForTID0__gtAGG____anonstruct_D_Work_4 gtINDEX47)))
(flet ($x312 (= gtINDEX46 (select gtFIELD__bitsForTID0__gtAGG____anonstruct_D_Work_4 gtINDEX45)))
(flet ($x308 (= gtINDEX44 (select gtFIELD__bitsForTID0__gtAGG____anonstruct_D_Work_4 gtINDEX43)))
(flet ($x304 (= gtINDEX42 (select gtFIELD__bitsForTID0__gtAGG____anonstruct_D_Work_4 gtINDEX41)))
(flet ($x300 (= gtINDEX40 (select gtFIELD__bitsForTID0__gtAGG____anonstruct_D_Work_4 gtINDEX39)))
(flet ($x295 (= gtINDEX37 (select gtFIELD__bitsForTID0__gtAGG____anonstruct_D_Work_4 gtINDEX36)))
(flet ($x291 (= gtINDEX35 (select gtFIELD__bitsForTID0__gtAGG____anonstruct_D_Work_4 gtINDEX34)))
(flet ($x287 (= gtINDEX33 (select gtFIELD__bitsForTID0__gtAGG____anonstruct_D_Work_4 gtINDEX32)))
(flet ($x283 (= gtINDEX31 (select gtFIELD__bitsForTID0__gtAGG____anonstruct_D_Work_4 gtINDEX30)))
(flet ($x279 (= gtINDEX29 (select gtFIELD__bitsForTID0__gtAGG____anonstruct_D_Work_4 gtINDEX28)))
(flet ($x270 (= gtINDEX22 (select gtFIELD__bitsForTID0__gtAGG____anonstruct_D_Work_4 gtINDEX21)))
(flet ($x266 (= gtINDEX20 (select gtFIELD__bitsForTID0__gtAGG____anonstruct_D_Work_4 gtINDEX19)))
(flet ($x262 (= gtINDEX18 (select gtFIELD__bitsForTID0__gtAGG____anonstruct_D_Work_4 gtINDEX17)))
(flet ($x258 (= gtINDEX16 (select gtFIELD__bitsForTID0__gtAGG____anonstruct_D_Work_4 gtINDEX15)))
(flet ($x254 (= gtINDEX14 (select gtFIELD__bitsForTID0__gtAGG____anonstruct_D_Work_4 gtINDEX13)))
(flet ($x250 (= gtINDEX12 (select gtFIELD__bitsForTID0__gtAGG____anonstruct_D_Work_4 gtINDEX11)))
(flet ($x245 (= gtINDEX9 (select gtFIELD__bitsForTID0__gtAGG____anonstruct_D_Work_4 gtINDEX8)))
(flet ($x241 (= gtINDEX7 (select gtFIELD__bitsForTID0__gtAGG____anonstruct_D_Work_4 gtINDEX6)))
(flet ($x237 (= gtINDEX5 (select gtFIELD__bitsForTID0__gtAGG____anonstruct_D_Work_4 gtINDEX4)))
(flet ($x233 (= gtINDEX3 (select gtFIELD__bitsForTID0__gtAGG____anonstruct_D_Work_4 gtINDEX2)))
(flet ($x229 (= gtINDEX1 (select gtFIELD__bitsForTID0__gtAGG____anonstruct_D_Work_4 gtINDEX0)))
(let (?x213 (extract[0:0] bv1[32]))
(let (?x223 (store gtFIELD__is_Eng__gtAGG____anonstruct_bitsForTID0_5_1_ gtINDEX62 ?x213))
(flet ($x424 (iff constraint41 (= gtFIELD__is_Eng__gtAGG____anonstruct_bitsForTID0_5_2_ ?x223)))
(let (?x219 (select gtFIELD__is_Eng__gtAGG____anonstruct_bitsForTID0_5_1_ gtINDEX60))
(let (?x214 (store gtFIELD__is_Eng__gtAGG____anonstruct_bitsForTID0_5 gtINDEX58 ?x213))
(flet ($x418 (iff constraint38 (= gtFIELD__is_Eng__gtAGG____anonstruct_bitsForTID0_5_1_ ?x214)))
(let (?x210 (zero_extend[31] (select gtFIELD__is_Eng__gtAGG____anonstruct_bitsForTID0_5 gtINDEX56)))
(let (?x206 (store gtFIELD__sent__gtAGG____anonstruct_D_Work_4_1_ gtINDEX54 bv0[32]))
(flet ($x414 (iff constraint36 (= gtFIELD__sent__gtAGG____anonstruct_D_Work_4_2_ ?x206)))
(let (?x118 (bvmul bv4294967295[32] bv1[32]))
(flet ($x204 (= (select gtFIELD__sent__gtAGG____anonstruct_D_Work_4_1_ gtINDEX53) ?x118))
(flet ($x200 (= (select gtFIELD__sent__gtAGG____anonstruct_D_Work_4_1_ gtINDEX52) bv9[32]))
(flet ($x196 (= (select gtFIELD__sent__gtAGG____anonstruct_D_Work_4_1_ gtINDEX51) bv4[32]))
(let (?x192 (zero_extend[31] (select gtFIELD__is_Eng__gtAGG____anonstruct_bitsForTID0_5 gtINDEX50)))
(let (?x186 (select gtFIELD__is_active_Eng__gtAGG____anonstruct_bitsForTID0_5 gtINDEX48))
(let (?x180 (select gtFIELD__is_active_PURI__gtAGG____anonstruct_bitsForTID0_5 gtINDEX46))
(let (?x174 (select gtFIELD__is_active_PVRP__gtAGG____anonstruct_bitsForTID0_5 gtINDEX44))
(let (?x168 (select gtFIELD__is_active_PPVARP__gtAGG____anonstruct_bitsForTID0_5 gtINDEX42))
(let (?x162 (select gtFIELD__is_active_PLRI__gtAGG____anonstruct_bitsForTID0_5 gtINDEX40))
(flet ($x159 (= (select gtFIELD__sent__gtAGG____anonstruct_D_Work_4_1_ gtINDEX38) bv0[32]))
(let (?x154 (select gtFIELD__is_PAVI__gtAGG____anonstruct_bitsForTID0_5 gtINDEX37))
(let (?x149 (select gtFIELD__is_PAVI__gtAGG____anonstruct_bitsForTID0_5 gtINDEX35))
(let (?x144 (select gtFIELD__is_PAVI__gtAGG____anonstruct_bitsForTID0_5 gtINDEX33))
(let (?x139 (select gtFIELD__is_PAVI__gtAGG____anonstruct_bitsForTID0_5 gtINDEX31))
(let (?x134 (select gtFIELD__is_active_PAVI__gtAGG____anonstruct_bitsForTID0_5 gtINDEX29))
(flet ($x126 (= gtFIELD__sent__gtAGG____anonstruct_D_Work_4_1_ (store gtFIELD__sent__gtAGG____anonstruct_D_Work_4 gtINDEX27 ?x118)))
(flet ($x123 (= (select gtFIELD__sent__gtAGG____anonstruct_D_Work_4 gtINDEX26) bv1[32]))
(flet ($x119 (= (select gtFIELD__sent__gtAGG____anonstruct_D_Work_4 gtINDEX25) ?x118))
(flet ($x113 (= (select gtFIELD__sent__gtAGG____anonstruct_D_Work_4 gtINDEX24) bv9[32]))
(flet ($x108 (= (select gtFIELD__sent__gtAGG____anonstruct_D_Work_4 gtINDEX23) bv4[32]))
(let (?x104 (zero_extend[31] (select gtFIELD__is_Eng__gtAGG____anonstruct_bitsForTID0_5 gtINDEX22)))
(let (?x98 (select gtFIELD__is_active_Eng__gtAGG____anonstruct_bitsForTID0_5 gtINDEX20))
(let (?x92 (select gtFIELD__is_active_PURI__gtAGG____anonstruct_bitsForTID0_5 gtINDEX18))
(let (?x86 (select gtFIELD__is_active_PVRP__gtAGG____anonstruct_bitsForTID0_5 gtINDEX16))
(let (?x80 (select gtFIELD__is_active_PPVARP__gtAGG____anonstruct_bitsForTID0_5 gtINDEX14))
(let (?x74 (select gtFIELD__is_active_PLRI__gtAGG____anonstruct_bitsForTID0_5 gtINDEX12))
(flet ($x71 (= (select gtFIELD__sent__gtAGG____anonstruct_D_Work_4 gtINDEX10) bv0[32]))
(let (?x66 (zero_extend[29] (select gtFIELD__is_PAVI__gtAGG____anonstruct_bitsForTID0_5 gtINDEX9)))
(let (?x60 (zero_extend[29] (select gtFIELD__is_PAVI__gtAGG____anonstruct_bitsForTID0_5 gtINDEX7)))
(let (?x54 (zero_extend[29] (select gtFIELD__is_PAVI__gtAGG____anonstruct_bitsForTID0_5 gtINDEX5)))
(let (?x48 (zero_extend[29] (select gtFIELD__is_PAVI__gtAGG____anonstruct_bitsForTID0_5 gtINDEX3)))
(let (?x41 (select gtFIELD__is_active_PAVI__gtAGG____anonstruct_bitsForTID0_5 gtINDEX1))
(flet ($x551 (and (iff constraint0 (not (= sfEvent_ bv8[32]))) (iff constraint1 (not (= (zero_extend[31] ?x41) bv0[32]))) (iff constraint2 (not (= ?x48 bv1[32]))) (iff constraint3 (not (= ?x54 bv2[32]))) (iff constraint4 (not (= ?x60 bv3[32]))) (iff constraint5 (= ?x66 bv4[32])) (iff constraint6 (not $x71)) (iff constraint7 (not (not (= (zero_extend[31] ?x74) bv0[32])))) (iff constraint8 (not (not (= (zero_extend[31] ?x80) bv0[32])))) (iff constraint9 (not (not (= (zero_extend[31] ?x86) bv0[32])))) (iff constraint10 (not (not (= (zero_extend[31] ?x92) bv0[32])))) (iff constraint11 (not (= (zero_extend[31] ?x98) bv0[32]))) (iff constraint12 (= ?x104 bv1[32])) (iff constraint13 (not $x108)) (iff constraint14 (not $x113)) (iff constraint15 (not $x119)) (iff constraint16 $x123) (iff constraint17 $x126) (iff constraint18 (= sf_previousEvent_1_ sfEvent_)) (iff constraint19 (= sfEvent__1_ bv2[32])) (iff constraint20 (not (= sfEvent__1_ bv8[32]))) (iff constraint21 (not (= (zero_extend[31] ?x134) bv0[32]))) (iff constraint22 (not (= (zero_extend[29] ?x139) bv1[32]))) (iff constraint23 (not (= (zero_extend[29] ?x144) bv2[32]))) (iff constraint24 (not (= (zero_extend[29] ?x149) bv3[32]))) (iff constraint25 (= (zero_extend[29] ?x154) bv4[32])) (iff constraint26 (not $x159)) (iff constraint27 (not (not (= (zero_extend[31] ?x162) bv0[32])))) (iff constraint28 (not (not (= (zero_extend[31] ?x168) bv0[32])))) (iff constraint29 (not (not (= (zero_extend[31] ?x174) bv0[32])))) (iff constraint30 (not (not (= (zero_extend[31] ?x180) bv0[32])))) (iff constraint31 (not (= (zero_extend[31] ?x186) bv0[32]))) (iff constraint32 (= ?x192 bv1[32])) (iff constraint33 (not $x196)) (iff constraint34 (not $x200)) (iff constraint35 $x204) $x414 (iff constraint37 (= ?x210 bv1[32])) $x418 (iff constraint39 (= sfEvent__2_ sf_previousEvent_1_)) (iff constraint40 (= (zero_extend[31] ?x219) bv1[32])) $x424 (iff constraint42 (= gtINDEX0 gtAGG__rtDWork)) (iff constraint43 $x229) (iff constraint44 (= gtINDEX2 gtAGG__rtDWork)) (iff constraint45 $x233) (iff constraint46 (= gtINDEX4 gtAGG__rtDWork)) (iff constraint47 $x237) (iff constraint48 (= gtINDEX6 gtAGG__rtDWork)) (iff constraint49 $x241) (iff constraint50 (= gtINDEX8 gtAGG__rtDWork)) (iff constraint51 $x245) (iff constraint52 (= gtINDEX10 gtAGG__rtDWork)) (iff constraint53 (= gtINDEX11 gtAGG__rtDWork)) (iff constraint54 $x250) (iff constraint55 (= gtINDEX13 gtAGG__rtDWork)) (iff constraint56 $x254) (iff constraint57 (= gtINDEX15 gtAGG__rtDWork)) (iff constraint58 $x258) (iff constraint59 (= gtINDEX17 gtAGG__rtDWork)) (iff constraint60 $x262) (iff constraint61 (= gtINDEX19 gtAGG__rtDWork)) (iff constraint62 $x266) (iff constraint63 (= gtINDEX21 gtAGG__rtDWork)) (iff constraint64 $x270) (iff constraint65 (= gtINDEX23 gtAGG__rtDWork)) (iff constraint66 (= gtINDEX24 gtAGG__rtDWork)) (iff constraint67 (= gtINDEX25 gtAGG__rtDWork)) (iff constraint68 (= gtINDEX26 gtAGG__rtDWork)) (iff constraint69 (= gtINDEX27 gtAGG__rtDWork)) (iff constraint70 (= gtINDEX28 gtAGG__rtDWork)) (iff constraint71 $x279) (iff constraint72 (= gtINDEX30 gtAGG__rtDWork)) (iff constraint73 $x283) (iff constraint74 (= gtINDEX32 gtAGG__rtDWork)) (iff constraint75 $x287) (iff constraint76 (= gtINDEX34 gtAGG__rtDWork)) (iff constraint77 $x291) (iff constraint78 (= gtINDEX36 gtAGG__rtDWork)) (iff constraint79 $x295) (iff constraint80 (= gtINDEX38 gtAGG__rtDWork)) (iff constraint81 (= gtINDEX39 gtAGG__rtDWork)) (iff constraint82 $x300) (iff constraint83 (= gtINDEX41 gtAGG__rtDWork)) (iff constraint84 $x304) (iff constraint85 (= gtINDEX43 gtAGG__rtDWork)) (iff constraint86 $x308) (iff constraint87 (= gtINDEX45 gtAGG__rtDWork)) (iff constraint88 $x312) (iff constraint89 (= gtINDEX47 gtAGG__rtDWork)) (iff constraint90 $x316) (iff constraint91 (= gtINDEX49 gtAGG__rtDWork)) (iff constraint92 $x320) (iff constraint93 (= gtINDEX51 gtAGG__rtDWork)) (iff constraint94 (= gtINDEX52 gtAGG__rtDWork)) (iff constraint95 (= gtINDEX53 gtAGG__rtDWork)) (iff constraint96 (= gtINDEX54 gtAGG__rtDWork)) (iff constraint97 (= gtINDEX55 gtAGG__rtDWork)) (iff constraint98 $x328) (iff constraint99 (= gtINDEX57 gtAGG__rtDWork)) (iff constraint100 $x332) (iff constraint101 (= gtINDEX59 gtAGG__rtDWork)) (iff constraint102 $x336) (iff constraint103 (= gtINDEX61 gtAGG__rtDWork)) (iff constraint104 $x340)))
(and $x551 $x552)))))))))))))))))))))))))))))))))))))))))))))))))))))))))))))))))))))))
)
